p cnf 72 61
-1 10 51 60 61 63 -69 -70 -72 0 
-2 55 63 -69 -70 -72 0 
-3 63 -69 -70 -72 0 
-4 63 -69 -70 -72 0 
-5 63 -69 -70 -72 0 
-6 63 -69 -70 -72 0 
-7 47 63 -69 -70 -72 0 
-6 -8 63 -69 -70 -72 0 
-9 23 45 -10 1 51 60 61 -11 64 -63 -69 -70 -72 0 
-12 -13 15 63 -69 -70 -72 0 
-14 44 -15 13 63 -69 -70 -72 0 
-16 65 -63 -69 -70 -72 0 
-17 -18 -19 66 -63 -69 -70 -72 0 
-18 -20 67 -63 -69 -70 -72 0 
-21 66 -63 -69 -70 -72 0 
-21 68 -63 -69 -70 -72 0 
-22 26 42 53 63 -69 -70 -72 0 
-5 -23 9 45 -24 63 -69 -70 -72 0 
-25 38 43 48 63 -69 -70 -72 0 
-26 22 42 53 63 -69 -70 -72 0 
-27 28 46 69 -63 -70 -72 0 
-28 27 46 70 -63 -69 -72 0 
-5 -23 9 45 -20 63 -69 -70 -72 0 
-29 63 -69 -70 -72 0 
-20 63 -69 -70 -72 0 
-30 63 -69 -70 -72 0 
-31 63 -69 -70 -72 0 
-32 35 63 -69 -70 -72 0 
-33 63 -69 -70 -72 0 
-34 63 -69 -70 -72 0 
-35 32 63 -69 -70 -72 0 
-5 -12 -2 55 63 -69 -70 -72 0 
-36 63 -69 -70 -72 0 
-37 49 52 63 -69 -70 -72 0 
-36 70 -63 -69 -72 0 
-38 25 43 48 63 -69 -70 -72 0 
-39 63 -69 -70 -72 0 
-40 71 0 
-5 -23 9 45 -41 62 63 -69 -70 -72 0 
-38 25 43 48 63 -69 -70 -72 0 
-42 22 26 53 63 -69 -70 -72 0 
-43 25 38 48 63 -69 -70 -72 0 
-44 14 -2 55 63 -69 -70 -72 0 
-44 14 63 -69 -70 -72 0 
-45 9 23 63 -69 -70 -72 0 
-46 27 28 72 -63 -69 -70 0 
-47 7 70 -63 -69 -72 0 
-48 25 38 43 63 -69 -70 -72 0 
-49 37 52 65 -63 -69 -70 -72 0 
-50 -51 1 10 60 61 63 -69 -70 -72 0 
-52 37 49 72 -63 -69 -70 0 
-28 27 46 65 -63 -69 -70 -72 0 
-53 22 26 42 63 -69 -70 -72 0 
-54 70 -63 -69 -72 0 
-55 2 -28 27 46 70 -63 -69 -72 0 
-56 70 -63 -69 -72 0 
-28 27 46 -57 70 -63 -69 -72 0 
-58 70 -63 -69 -72 0 
-59 70 -63 -69 -72 0 
-60 1 10 51 61 70 -63 -69 -72 0 
-5 -61 1 10 51 60 -62 41 63 -69 -70 -72 0 
